1 -1 2 0
1 -1 -3 0
1 1 -4 0
1 -1 5 0
1 -1 -6 0
1 2 -7 0
1 -2 3 0
1 2 4 0
1 2 1 0
1 -2 5 0
1 -8 -3 0
1 8 4 0
1 -8 9 0
1 8 10 0
1 -8 11 0
1 -8 5 0
1 12 13 0
1 12 -14 0
1 -12 15 0
1 -12 -3 0
1 12 4 0
1 12 -9 0
1 -12 10 0
1 12 5 0
1 12 16 0
1 -4 17 0
1 4 18 0
1 4 19 0
1 4 -12 0
1 -4 20 0
1 4 21 0
1 -4 -22 0
1 4 23 0
1 -4 -8 0
1 4 -1 0
1 -4 16 0
1 -16 24 0
1 -16 -17 0
1 -16 18 0
1 -16 19 0
1 -16 -12 0
1 -16 2 0
1 16 4 0
1 16 -21 0
1 3 17 0
1 -3 -25 0
1 3 12 0
1 3 2 0
1 -3 26 0
1 3 21 0
1 -3 27 0
1 3 -28 0
1 -3 8 0
1 3 -1 0
1 3 -5 0
1 5 17 0
1 -5 -25 0
1 -5 29 0
1 -5 12 0
1 5 -2 0
1 -5 3 0
1 5 21 0
1 -5 -27 0
1 -5 28 0
1 5 8 0
1 -5 1 0
1 -5 -30 0
1 23 13 0
1 23 14 0
1 23 -19 0
1 23 4 0
1 -23 9 0
1 23 10 0
1 -23 28 0
1 -23 16 0
1 19 -13 0
1 19 14 0
1 19 -29 0
1 19 -4 0
1 -19 -9 0
1 -19 10 0
1 19 -23 0
1 -19 -16 0
1 -22 13 0
1 -22 14 0
1 -22 -18 0
1 22 -31 0
1 -22 32 0
1 22 4 0
1 22 -9 0
1 -22 -10 0
1 22 33 0
1 22 -27 0
1 -22 -16 0
1 18 13 0
1 -18 -14 0
1 -18 -31 0
1 18 -25 0
1 -18 32 0
1 -18 4 0
1 18 -9 0
1 18 -10 0
1 -18 22 0
1 -18 33 0
1 -18 34 0
1 -18 -16 0
1 -10 -35 0
1 -10 36 0
1 10 14 0
1 10 -18 0
1 10 -19 0
1 -10 -12 0
1 -10 -37 0
1 -10 38 0
1 10 39 0
1 -10 22 0
1 10 -23 0
1 10 -8 0
1 -10 -40 0
1 14 35 0
1 -14 -36 0
1 -14 -41 0
1 -14 18 0
1 -14 19 0
1 -14 -12 0
1 -14 37 0
1 14 -42 0
1 14 -38 0
1 14 10 0
1 -14 22 0
1 -14 23 0
1 -14 8 0
1 -14 -40 0
1 -9 13 0
1 -9 -43 0
1 -9 17 0
1 -9 18 0
1 -9 -12 0
1 9 -37 0
1 9 -44 0
1 9 45 0
1 9 -21 0
1 -9 22 0
1 -9 -23 0
1 -9 8 0
1 -9 40 0
1 -13 43 0
1 13 17 0
1 -13 18 0
1 -13 19 0
1 -13 -12 0
1 -13 37 0
1 13 -9 0
1 -13 44 0
1 -13 -21 0
1 -13 -22 0
1 -13 -23 0
1 -13 -8 0
1 13 40 0
1 -38 36 0
1 38 14 0
1 38 31 0
1 38 32 0
1 -38 10 0
1 38 -21 0
1 -38 33 0
1 -38 34 0
1 36 -14 0
1 36 17 0
1 36 31 0
1 36 -32 0
1 -36 38 0
1 -36 10 0
1 36 -33 0
1 -42 35 0
1 -42 -31 0
1 42 32 0
1 -42 10 0
1 -42 33 0
1 -42 34 0
1 35 -43 0
1 35 14 0
1 35 31 0
1 35 32 0
1 -35 33 0
1 35 -34 0
1 34 35 0
1 34 -36 0
1 34 18 0
1 34 -32 0
1 34 -46 0
1 34 -42 0
1 -34 -38 0
1 -34 22 0
1 34 -47 0
1 34 48 0
1 -32 -36 0
1 -32 -18 0
1 -32 49 0
1 -32 -46 0
1 32 -38 0
1 -32 -22 0
1 32 34 0
1 -32 -48 0
1 33 -35 0
1 -33 -36 0
1 -33 18 0
1 33 31 0
1 33 -46 0
1 -33 -50 0
1 -33 -37 0
1 33 42 0
1 -33 -38 0
1 33 -22 0
1 -33 51 0
1 33 -48 0
1 33 -52 0
1 33 40 0
1 31 36 0
1 31 18 0
1 31 53 0
1 31 46 0
1 31 50 0
1 -31 -37 0
1 -31 -42 0
1 -31 -38 0
1 31 22 0
1 31 -33 0
1 -31 48 0
1 -31 -52 0
1 -31 -40 0
1 -6 -54 0
1 -6 55 0
1 -6 7 0
1 6 -56 0
1 6 57 0
1 6 -1 0
1 6 58 0
1 -7 -54 0
1 -7 -55 0
1 7 -2 0
1 7 -59 0
1 7 -56 0
1 7 -57 0
1 -7 -6 0
1 11 -54 0
1 -11 55 0
1 11 -60 0
1 -11 -61 0
1 11 -15 0
1 11 56 0
1 11 -57 0
1 -11 62 0
1 -11 63 0
1 11 -8 0
1 -11 64 0
1 15 -54 0
1 -15 55 0
1 -15 -60 0
1 15 61 0
1 15 -12 0
1 15 -65 0
1 -15 -56 0
1 15 57 0
1 -15 62 0
1 -15 -63 0
1 15 -11 0
1 55 66 0
1 -55 25 0
1 -55 67 0
1 55 -29 0
1 -55 -15 0
1 -55 7 0
1 -55 57 0
1 -55 -27 0
1 -55 -6 0
1 57 -55 0
1 -57 29 0
1 57 15 0
1 -57 -7 0
1 -57 68 0
1 -57 69 0
1 57 -28 0
1 57 11 0
1 57 6 0
1 54 -70 0
1 -54 66 0
1 54 71 0
1 54 72 0
1 54 15 0
1 -54 7 0
1 -54 -56 0
1 -54 69 0
1 54 -11 0
1 54 -6 0
1 56 -54 0
1 56 71 0
1 -56 -72 0
1 -56 -15 0
1 56 -7 0
1 -56 -69 0
1 -56 -73 0
1 56 74 0
1 56 11 0
1 56 6 0
1 -28 -55 0
1 -28 -60 0
1 -28 29 0
1 -28 -61 0
1 28 -3 0
1 -28 -57 0
1 28 -62 0
1 28 63 0
1 -28 23 0
1 -28 74 0
1 28 5 0
1 -29 -55 0
1 29 60 0
1 29 -19 0
1 -29 -61 0
1 -29 72 0
1 29 -3 0
1 29 -57 0
1 29 62 0
1 29 -63 0
1 -29 -28 0
1 29 5 0
1 -27 55 0
1 27 25 0
1 27 -60 0
1 27 61 0
1 -27 -75 0
1 27 -76 0
1 -27 -3 0
1 27 -57 0
1 27 -62 0
1 -27 22 0
1 27 63 0
1 -27 73 0
1 -27 77 0
1 27 -78 0
1 -25 -63 0
1 25 -55 0
1 25 18 0
1 25 60 0
1 -25 61 0
1 25 -75 0
1 -25 -76 0
1 25 -3 0
1 25 57 0
1 25 62 0
1 25 27 0
1 -25 -77 0
1 25 78 0
1 -25 -5 0
1 -61 79 0
1 -61 -43 0
1 61 -17 0
1 61 25 0
1 -61 29 0
1 -61 -80 0
1 61 15 0
1 -61 -81 0
1 -61 44 0
1 -61 -21 0
1 61 27 0
1 -61 -28 0
1 61 -11 0
1 -63 -79 0
1 -63 -17 0
1 -63 25 0
1 -63 29 0
1 63 -61 0
1 63 -15 0
1 -63 -81 0
1 -63 -44 0
1 -63 -21 0
1 -63 -27 0
1 63 -82 0
1 63 -11 0
1 60 83 0
1 -60 -66 0
1 -60 -25 0
1 60 -84 0
1 -60 -29 0
1 -60 15 0
1 -60 81 0
1 60 -85 0
1 60 62 0
1 -60 69 0
1 60 27 0
1 -60 28 0
1 -60 -11 0
1 62 -79 0
1 -62 83 0
1 62 25 0
1 62 -60 0
1 -62 -29 0
1 -62 81 0
1 62 -85 0
1 62 69 0
1 -62 -27 0
1 62 -86 0
1 62 28 0
1 62 -11 0
1 21 13 0
1 21 17 0
1 21 61 0
1 21 75 0
1 21 -76 0
1 21 3 0
1 21 -4 0
1 -21 -9 0
1 21 38 0
1 -21 -69 0
1 21 -63 0
1 -21 -77 0
1 -21 -78 0
1 21 5 0
1 21 -16 0
1 -17 13 0
1 -17 36 0
1 -17 -66 0
1 -17 61 0
1 -17 75 0
1 17 76 0
1 17 3 0
1 17 4 0
1 -17 -9 0
1 17 21 0
1 17 -63 0
1 17 -78 0
1 17 -5 0
1 -44 24 0
1 44 -13 0
1 -44 -61 0
1 44 -75 0
1 -44 -76 0
1 44 26 0
1 44 -20 0
1 -44 9 0
1 -44 85 0
1 44 -63 0
1 44 77 0
1 44 78 0
1 -44 30 0
1 -43 24 0
1 -43 -35 0
1 -43 -83 0
1 -43 -75 0
1 -43 -76 0
1 43 -26 0
1 43 -20 0
1 -43 -9 0
1 -43 -44 0
1 43 63 0
1 -43 77 0
1 43 -78 0
1 -43 -30 0
1 76 -43 0
1 76 -17 0
1 -76 25 0
1 -76 87 0
1 -76 -50 0
1 -76 88 0
1 -76 -37 0
1 -76 44 0
1 76 21 0
1 -76 27 0
1 -76 78 0
1 76 -89 0
1 76 -52 0
1 -76 -40 0
1 78 -43 0
1 -78 17 0
1 78 -25 0
1 78 76 0
1 -78 87 0
1 -78 -50 0
1 78 -37 0
1 -78 -90 0
1 -78 -44 0
1 78 21 0
1 78 27 0
1 78 -89 0
1 78 52 0
1 78 40 0
1 -75 79 0
1 -75 43 0
1 75 -17 0
1 75 -25 0
1 75 -91 0
1 -75 87 0
1 -75 92 0
1 75 -81 0
1 -75 -44 0
1 75 21 0
1 -75 27 0
1 -75 77 0
1 -75 89 0
1 77 79 0
1 -77 -43 0
1 77 -17 0
1 -77 25 0
1 77 87 0
1 77 -92 0
1 77 -21 0
1 -77 93 0
1 -77 -89 0
1 77 -94 0
1 -37 -24 0
1 37 13 0
1 37 -31 0
1 -37 -76 0
1 37 26 0
1 37 81 0
1 -37 9 0
1 -37 -20 0
1 37 -10 0
1 37 33 0
1 -37 78 0
1 -37 -30 0
1 -37 40 0
1 -40 -79 0
1 40 -13 0
1 40 24 0
1 40 -14 0
1 -40 26 0
1 40 37 0
1 40 -20 0
1 40 9 0
1 -40 -10 0
1 40 33 0
1 40 78 0
1 40 30 0
1 -50 24 0
1 50 -41 0
1 50 -31 0
1 -50 76 0
1 -50 92 0
1 -50 -26 0
1 50 -20 0
1 50 -45 0
1 50 -39 0
1 -50 -33 0
1 -50 -78 0
1 50 -52 0
1 50 -30 0
1 52 24 0
1 52 41 0
1 -52 31 0
1 52 76 0
1 52 -50 0
1 52 26 0
1 52 -20 0
1 52 -45 0
1 -52 39 0
1 -52 -33 0
1 52 -30 0
1 -52 78 0
1 -52 -94 0
1 -20 24 0
1 -20 -43 0
1 20 95 0
1 20 96 0
1 20 46 0
1 20 50 0
1 -20 -37 0
1 -20 4 0
1 20 97 0
1 -20 -44 0
1 20 98 0
1 -20 -99 0
1 20 48 0
1 -20 52 0
1 20 40 0
1 -24 -100 0
1 -24 -43 0
1 24 95 0
1 -24 96 0
1 -24 -46 0
1 24 50 0
1 24 37 0
1 24 20 0
1 24 -44 0
1 24 98 0
1 -24 -99 0
1 -24 48 0
1 -24 -52 0
1 -26 95 0
1 -26 -101 0
1 -26 -87 0
1 26 -50 0
1 -26 -3 0
1 26 37 0
1 -26 -102 0
1 -26 44 0
1 26 98 0
1 -26 -103 0
1 26 -89 0
1 -26 52 0
1 -26 30 0
1 -30 -43 0
1 30 95 0
1 30 -101 0
1 30 -87 0
1 -30 -50 0
1 -30 -26 0
1 -30 37 0
1 -30 44 0
1 -30 -5 0
1 30 98 0
1 30 -89 0
1 30 52 0
1 -30 -104 0
1 30 -40 0
1 -46 -24 0
1 46 105 0
1 -46 -31 0
1 46 -41 0
1 -46 32 0
1 46 87 0
1 -46 -20 0
1 -46 -45 0
1 -46 -39 0
1 46 33 0
1 -46 34 0
1 -46 48 0
1 -48 -24 0
1 -48 -105 0
1 48 -41 0
1 -48 31 0
1 48 46 0
1 -48 20 0
1 48 45 0
1 48 39 0
1 48 -33 0
1 48 -34 0
1 48 89 0
1 -96 41 0
1 -96 53 0
1 -96 99 0
1 -96 101 0
1 96 -20 0
1 -96 -45 0
1 -96 -39 0
1 -96 51 0
1 -96 47 0
1 -99 -105 0
1 99 -41 0
1 -99 53 0
1 -99 -49 0
1 99 -96 0
1 99 20 0
1 -99 -45 0
1 -99 39 0
1 99 -51 0
1 -99 47 0
1 99 103 0
1 -39 -106 0
1 39 41 0
1 39 -107 0
1 39 108 0
1 39 -96 0
1 39 -46 0
1 -39 -50 0
1 -39 10 0
1 -39 109 0
1 39 110 0
1 39 -99 0
1 -39 -48 0
1 39 52 0
1 -41 14 0
1 41 106 0
1 41 -111 0
1 -41 -107 0
1 41 108 0
1 41 -96 0
1 41 46 0
1 41 -50 0
1 -41 -112 0
1 -41 -109 0
1 41 -39 0
1 41 -110 0
1 -41 -99 0
1 -41 -48 0
1 41 -52 0
1 -45 -105 0
1 -45 106 0
1 45 -113 0
1 -45 96 0
1 45 46 0
1 -45 50 0
1 45 -9 0
1 -45 112 0
1 -45 114 0
1 45 115 0
1 45 98 0
1 45 99 0
1 45 48 0
1 -45 -52 0
1 -105 -13 0
1 -105 116 0
1 105 -106 0
1 -105 -113 0
1 105 -95 0
1 -105 96 0
1 105 46 0
1 -105 -50 0
1 105 112 0
1 105 45 0
1 105 -115 0
1 105 98 0
1 105 -99 0
1 105 -48 0
1 105 52 0
1 -108 41 0
1 -108 53 0
1 108 49 0
1 -108 -95 0
1 108 -39 0
1 -108 110 0
1 108 47 0
1 -110 -41 0
1 110 53 0
1 -110 49 0
1 -110 39 0
1 110 51 0
1 -110 -98 0
1 -110 -47 0
1 107 -41 0
1 -107 53 0
1 107 -113 0
1 -107 -49 0
1 107 -109 0
1 107 39 0
1 -107 51 0
1 -107 47 0
1 -109 41 0
1 -109 -107 0
1 109 53 0
1 -109 49 0
1 109 39 0
1 109 115 0
1 109 -51 0
1 109 -47 0
1 -47 -117 0
1 47 107 0
1 -47 -108 0
1 -47 49 0
1 47 -96 0
1 47 118 0
1 47 109 0
1 47 110 0
1 -47 34 0
1 -47 99 0
1 -47 -119 0
1 -49 117 0
1 49 -107 0
1 -49 -32 0
1 -49 -120 0
1 49 -96 0
1 49 118 0
1 -49 -109 0
1 49 110 0
1 49 -99 0
1 49 -47 0
1 51 -117 0
1 -51 -121 0
1 51 106 0
1 51 107 0
1 -51 -53 0
1 -51 108 0
1 51 -96 0
1 -51 -118 0
1 -51 -122 0
1 -51 112 0
1 -51 109 0
1 51 -33 0
1 -51 -110 0
1 51 123 0
1 -51 99 0
1 53 117 0
1 53 121 0
1 -53 106 0
1 -53 31 0
1 53 107 0
1 -53 -124 0
1 53 108 0
1 -53 -96 0
1 -53 -122 0
1 53 -51 0
1 53 -112 0
1 53 109 0
1 -53 110 0
1 -53 99 0
1 -58 -125 0
1 58 59 0
1 58 -126 0
1 58 127 0
1 58 -6 0
1 -59 -125 0
1 59 -128 0
1 59 7 0
1 59 -126 0
1 -59 -58 0
1 64 125 0
1 -64 128 0
1 -64 65 0
1 64 -126 0
1 64 -127 0
1 -64 129 0
1 64 -11 0
1 64 -130 0
1 -65 -125 0
1 65 -128 0
1 -65 131 0
1 65 -15 0
1 -65 132 0
1 65 126 0
1 -65 130 0
1 65 -129 0
1 65 -64 0
1 -127 -128 0
1 127 72 0
1 -127 65 0
1 127 59 0
1 127 -73 0
1 127 -133 0
1 127 74 0
1 -127 64 0
1 -128 -127 0
1 128 -71 0
1 128 -134 0
1 128 -72 0
1 -128 -59 0
1 -128 -73 0
1 128 74 0
1 -128 64 0
1 126 -135 0
1 -126 -125 0
1 126 65 0
1 -126 64 0
1 -126 58 0
1 125 -136 0
1 -125 65 0
1 125 59 0
1 -125 -126 0
1 -125 64 0
1 -125 -58 0
1 74 54 0
1 -74 128 0
1 -74 72 0
1 74 -131 0
1 -74 132 0
1 -74 56 0
1 -74 127 0
1 74 28 0
1 74 129 0
1 -74 -130 0
1 -72 -54 0
1 72 128 0
1 -72 131 0
1 72 132 0
1 -72 129 0
1 -72 -56 0
1 -72 127 0
1 72 -74 0
1 -72 -130 0
1 -73 54 0
1 -73 -71 0
1 -73 128 0
1 -73 131 0
1 73 132 0
1 73 137 0
1 73 138 0
1 73 56 0
1 -73 -27 0
1 -73 -127 0
1 73 129 0
1 73 -130 0
1 -73 139 0
1 71 -140 0
1 -71 -54 0
1 -71 -127 0
1 -71 -128 0
1 -71 -131 0
1 -71 132 0
1 -71 137 0
1 71 138 0
1 -71 56 0
1 71 -130 0
1 -71 139 0
1 130 -141 0
1 130 83 0
1 -130 -66 0
1 130 -71 0
1 130 -72 0
1 130 -65 0
1 -130 -132 0
1 130 142 0
1 -130 -85 0
1 130 73 0
1 130 64 0
1 -132 141 0
1 -132 83 0
1 -132 -66 0
1 132 -72 0
1 132 65 0
1 132 -142 0
1 132 -85 0
1 -132 -69 0
1 132 130 0
1 132 73 0
1 -132 -74 0
1 -132 64 0
1 129 141 0
1 -129 -71 0
1 -129 131 0
1 129 -65 0
1 -129 -142 0
1 129 -73 0
1 129 -74 0
1 129 -143 0
1 129 -64 0
1 -131 141 0
1 131 71 0
1 -131 72 0
1 -131 144 0
1 131 65 0
1 131 -129 0
1 131 142 0
1 131 73 0
1 -131 -74 0
1 -131 -64 0
1 69 140 0
1 -69 -54 0
1 69 -55 0
1 69 66 0
1 69 -60 0
1 69 132 0
1 69 137 0
1 -69 -138 0
1 69 56 0
1 -69 57 0
1 69 62 0
1 -69 21 0
1 69 -130 0
1 -69 -139 0
1 66 -140 0
1 66 -17 0
1 -66 -55 0
1 66 -60 0
1 -66 137 0
1 -66 138 0
1 66 56 0
1 -66 -62 0
1 -66 69 0
1 -66 130 0
1 66 139 0
1 -85 140 0
1 85 83 0
1 85 -70 0
1 85 67 0
1 -85 60 0
1 -85 -137 0
1 -85 145 0
1 -85 44 0
1 85 68 0
1 85 -130 0
1 -85 139 0
1 83 -140 0
1 83 43 0
1 -83 70 0
1 83 67 0
1 -83 60 0
1 -83 -132 0
1 -83 -137 0
1 83 138 0
1 -83 -145 0
1 -83 85 0
1 83 -62 0
1 -83 -68 0
1 83 -130 0
1 140 -83 0
1 -140 66 0
1 140 71 0
1 140 -146 0
1 140 138 0
1 -140 81 0
1 -140 85 0
1 140 -69 0
1 140 73 0
1 140 147 0
1 140 -94 0
1 138 79 0
1 -138 -140 0
1 138 -83 0
1 138 66 0
1 138 71 0
1 -138 -146 0
1 -138 -92 0
1 138 148 0
1 -138 -81 0
1 138 -85 0
1 -138 -69 0
1 -138 -73 0
1 138 -94 0
1 -139 141 0
1 139 -83 0
1 139 -66 0
1 -139 -149 0
1 -139 -71 0
1 139 137 0
1 139 146 0
1 -139 150 0
1 139 -142 0
1 139 85 0
1 -139 69 0
1 139 -73 0
1 -139 151 0
1 137 -141 0
1 137 83 0
1 -137 66 0
1 137 -71 0
1 137 -146 0
1 137 152 0
1 -137 -150 0
1 137 -142 0
1 -137 73 0
1 137 -139 0
1 -137 -151 0
1 -81 140 0
1 81 -67 0
1 81 -60 0
1 81 75 0
1 -81 -138 0
1 -81 -37 0
1 -81 -142 0
1 -81 -145 0
1 81 68 0
1 -81 -62 0
1 81 -63 0
1 -81 -77 0
1 -79 -140 0
1 79 -141 0
1 -79 70 0
1 79 67 0
1 -79 -60 0
1 79 61 0
1 -79 75 0
1 79 138 0
1 -79 -81 0
1 79 145 0
1 -79 -68 0
1 -79 -62 0
1 -79 63 0
1 -79 -77 0
1 79 40 0
1 92 -140 0
1 92 67 0
1 -92 80 0
1 92 75 0
1 -92 50 0
1 -92 138 0
1 -92 -150 0
1 92 -86 0
1 -92 82 0
1 92 77 0
1 -92 94 0
1 94 140 0
1 94 70 0
1 -94 67 0
1 -94 84 0
1 -94 80 0
1 94 92 0
1 94 -138 0
1 -94 145 0
1 94 -68 0
1 -94 -86 0
1 94 -82 0
1 94 77 0
1 -94 -52 0
1 67 -79 0
1 67 83 0
1 -67 55 0
1 -67 153 0
1 -67 -154 0
1 -67 101 0
1 -67 87 0
1 -67 92 0
1 67 81 0
1 67 85 0
1 -67 68 0
1 -67 155 0
1 67 89 0
1 -67 94 0
1 -68 83 0
1 68 -67 0
1 68 154 0
1 68 -101 0
1 -68 87 0
1 -68 92 0
1 -68 -81 0
1 -68 85 0
1 68 -156 0
1 -68 -155 0
1 -68 103 0
1 -68 -89 0
1 -70 79 0
1 -70 54 0
1 70 -157 0
1 -70 158 0
1 70 92 0
1 -70 81 0
1 70 155 0
1 -70 -159 0
1 -70 -94 0
1 145 -79 0
1 -145 83 0
1 145 -70 0
1 -145 154 0
1 -145 158 0
1 -145 146 0
1 145 92 0
1 145 81 0
1 145 160 0
1 -145 -85 0
1 -145 155 0
1 145 159 0
1 145 -147 0
1 -145 -94 0
1 -87 67 0
1 87 -84 0
1 -87 -80 0
1 -87 -75 0
1 87 -46 0
1 87 -76 0
1 87 146 0
1 87 26 0
1 87 68 0
1 -87 86 0
1 -87 82 0
1 -87 77 0
1 87 -78 0
1 87 -89 0
1 -87 30 0
1 89 67 0
1 89 -80 0
1 -89 -75 0
1 -89 -78 0
1 89 76 0
1 -89 -87 0
1 -89 -26 0
1 89 68 0
1 89 86 0
1 -89 -77 0
1 -89 -48 0
1 -89 147 0
1 -89 -30 0
1 -101 67 0
1 101 -93 0
1 -101 84 0
1 -101 -80 0
1 -101 96 0
1 -101 91 0
1 101 158 0
1 -101 -88 0
1 101 26 0
1 -101 -68 0
1 -101 -86 0
1 101 82 0
1 -101 103 0
1 101 30 0
1 103 -67 0
1 103 -84 0
1 103 80 0
1 103 -101 0
1 -103 91 0
1 103 88 0
1 103 26 0
1 -103 -68 0
1 103 -86 0
1 103 -82 0
1 -103 -99 0
1 103 93 0
1 -103 90 0
1 103 30 0
1 -80 -82 0
1 -80 -161 0
1 80 113 0
1 -80 61 0
1 -80 -95 0
1 -80 -162 0
1 -80 -101 0
1 80 -87 0
1 80 -92 0
1 80 -115 0
1 -80 -98 0
1 80 -103 0
1 80 -89 0
1 -80 -94 0
1 -82 161 0
1 -82 113 0
1 82 95 0
1 -82 80 0
1 -82 -101 0
1 -82 87 0
1 -82 92 0
1 -82 115 0
1 82 -63 0
1 -82 98 0
1 -82 163 0
1 82 103 0
1 82 -89 0
1 -82 94 0
1 -84 -161 0
1 84 60 0
1 -84 164 0
1 -84 165 0
1 -84 154 0
1 -84 -101 0
1 -84 -87 0
1 -84 166 0
1 84 86 0
1 84 167 0
1 -84 -155 0
1 84 103 0
1 84 -94 0
1 86 161 0
1 86 -168 0
1 -86 84 0
1 86 -164 0
1 -86 154 0
1 -86 101 0
1 -86 87 0
1 86 -92 0
1 86 166 0
1 -86 -62 0
1 -86 -167 0
1 -86 -103 0
1 86 -89 0
1 86 94 0
1 -95 -24 0
1 -95 -105 0
1 -95 -82 0
1 95 108 0
1 95 -80 0
1 95 154 0
1 -95 -91 0
1 95 -88 0
1 95 -26 0
1 -95 20 0
1 -95 45 0
1 95 98 0
1 -95 93 0
1 -95 -90 0
1 -95 30 0
1 98 24 0
1 -98 105 0
1 -98 80 0
1 98 -91 0
1 -98 88 0
1 98 -26 0
1 -98 -20 0
1 -98 -110 0
1 -98 -82 0
1 -98 155 0
1 -98 -93 0
1 -98 90 0
1 98 30 0
1 -113 -100 0
1 -113 -105 0
1 -113 -107 0
1 113 164 0
1 113 -80 0
1 113 -91 0
1 113 88 0
1 113 102 0
1 113 -97 0
1 113 45 0
1 113 -115 0
1 -113 82 0
1 -113 -93 0
1 -113 -90 0
1 -113 104 0
1 -115 -100 0
1 115 -105 0
1 -115 113 0
1 -115 -80 0
1 -115 -91 0
1 -115 -102 0
1 115 97 0
1 -115 -45 0
1 -115 -109 0
1 -115 167 0
1 -115 -82 0
1 -115 93 0
1 -115 104 0
1 -88 -169 0
1 -88 -121 0
1 88 -106 0
1 -88 -113 0
1 88 -95 0
1 88 101 0
1 88 76 0
1 -88 170 0
1 -88 171 0
1 88 -122 0
1 88 -112 0
1 -88 115 0
1 -88 -98 0
1 88 -103 0
1 -88 90 0
1 90 169 0
1 90 106 0
1 -90 113 0
1 -90 95 0
1 -90 101 0
1 90 -88 0
1 -90 -171 0
1 90 122 0
1 -90 -112 0
1 90 115 0
1 90 103 0
1 90 -78 0
1 90 172 0
1 91 169 0
1 91 173 0
1 -91 -161 0
1 91 113 0
1 91 93 0
1 91 95 0
1 91 -75 0
1 -91 -101 0
1 91 174 0
1 -91 171 0
1 -91 175 0
1 91 166 0
1 -91 -115 0
1 91 -98 0
1 -91 -103 0
1 -93 -169 0
1 93 173 0
1 -93 -161 0
1 93 95 0
1 93 101 0
1 -93 -171 0
1 93 175 0
1 93 -166 0
1 93 -98 0
1 93 77 0
1 93 103 0
1 93 176 0
1 106 100 0
1 106 41 0
1 -106 -161 0
1 106 53 0
1 106 -88 0
1 -106 -102 0
1 106 97 0
1 106 -45 0
1 -106 39 0
1 -106 -51 0
1 -106 -90 0
1 -106 104 0
1 -112 -100 0
1 112 105 0
1 112 106 0
1 112 -41 0
1 -112 -53 0
1 112 88 0
1 112 102 0
1 -112 97 0
1 112 45 0
1 112 166 0
1 112 39 0
1 -112 51 0
1 112 90 0
1 -121 -100 0
1 121 173 0
1 121 -116 0
1 121 111 0
1 -121 -53 0
1 -121 88 0
1 -121 102 0
1 121 -122 0
1 -121 97 0
1 -121 -114 0
1 -121 -51 0
1 121 90 0
1 -121 104 0
1 122 121 0
1 122 -116 0
1 122 111 0
1 122 88 0
1 122 -175 0
1 122 -97 0
1 -122 114 0
1 -122 177 0
1 -122 51 0
1 -122 90 0
1 -122 104 0
1 97 117 0
1 -97 100 0
1 -97 121 0
1 97 106 0
1 97 -113 0
1 -97 -178 0
1 97 -179 0
1 97 118 0
1 -97 -122 0
1 -97 -20 0
1 97 -115 0
1 -97 180 0
1 -97 -181 0
1 -100 -117 0
1 -100 -121 0
1 -100 106 0
1 100 -113 0
1 -100 -178 0
1 100 -179 0
1 100 -118 0
1 100 122 0
1 100 97 0
1 -100 -112 0
1 -100 -115 0
1 -100 180 0
1 -100 -181 0
1 -102 -169 0
1 102 -121 0
1 102 106 0
1 102 -113 0
1 -102 178 0
1 -102 182 0
1 102 -26 0
1 -102 -171 0
1 -102 -122 0
1 102 -112 0
1 -102 115 0
1 -102 -180 0
1 102 104 0
1 102 183 0
1 104 -106 0
1 -104 -178 0
1 -104 -182 0
1 104 -122 0
1 104 -102 0
1 -104 115 0
1 -104 180 0
1 -104 30 0
1 104 -183 0
1 -117 169 0
1 -117 -100 0
1 117 -116 0
1 -117 -111 0
1 -117 53 0
1 117 49 0
1 117 118 0
1 -117 97 0
1 -117 114 0
1 -117 177 0
1 117 -51 0
1 117 -47 0
1 -118 -117 0
1 118 -116 0
1 118 111 0
1 118 53 0
1 -118 -171 0
1 -118 97 0
1 -118 114 0
1 -118 -177 0
1 118 -51 0
1 118 47 0
1 -181 100 0
1 -181 -116 0
1 -181 -111 0
1 -181 124 0
1 181 179 0
1 181 -97 0
1 181 114 0
1 181 -177 0
1 181 -123 0
1 181 119 0
1 -181 -183 0
1 -179 100 0
1 -179 116 0
1 179 -111 0
1 -179 -124 0
1 179 120 0
1 179 -182 0
1 -179 -97 0
1 179 114 0
1 179 177 0
1 179 -123 0
1 179 119 0
1 179 -181 0
1 -177 -117 0
1 177 121 0
1 177 -111 0
1 -177 -184 0
1 -177 185 0
1 177 -179 0
1 -177 -118 0
1 -177 122 0
1 177 39 0
1 -177 186 0
1 -177 -187 0
1 177 181 0
1 111 117 0
1 111 121 0
1 111 184 0
1 111 -185 0
1 -111 -179 0
1 111 -118 0
1 111 -122 0
1 111 177 0
1 -111 -186 0
1 111 187 0
1 111 -181 0
1 -114 117 0
1 -114 -121 0
1 114 116 0
1 114 -188 0
1 -114 -178 0
1 -114 179 0
1 114 118 0
1 114 122 0
1 114 -45 0
1 114 189 0
1 114 180 0
1 -114 181 0
1 -116 -117 0
1 -116 -121 0
1 -116 -105 0
1 -116 188 0
1 -116 -178 0
1 -116 -179 0
1 -116 118 0
1 -116 122 0
1 116 114 0
1 -116 -189 0
1 116 -180 0
1 116 -181 0
1 -187 111 0
1 -187 -124 0
1 -187 -120 0
1 187 -177 0
1 -187 -123 0
1 -187 -119 0
1 187 180 0
1 -185 -111 0
1 185 124 0
1 185 120 0
1 -185 -178 0
1 185 177 0
1 -185 -123 0
1 185 -119 0
1 -186 111 0
1 186 124 0
1 186 -184 0
1 -186 123 0
1 186 119 0
1 -186 -189 0
1 -184 119 0
1 -184 -111 0
1 184 -124 0
1 184 -120 0
1 -184 188 0
1 -184 177 0
1 -184 -123 0
1 -184 186 0
1 -119 184 0
1 -119 120 0
1 -119 -179 0
1 -119 186 0
1 119 -181 0
1 -120 119 0
1 -120 -49 0
1 120 184 0
1 -120 185 0
1 -120 -179 0
1 120 186 0
1 120 -187 0
1 -120 -181 0
1 -123 -124 0
1 123 -184 0
1 123 -185 0
1 123 179 0
1 123 51 0
1 123 186 0
1 123 181 0
1 124 53 0
1 124 184 0
1 -124 -185 0
1 -124 179 0
1 124 123 0
1 -124 186 0
1 -124 187 0
1 -124 181 0
1 -142 141 0
1 -142 -136 0
1 142 131 0
1 -142 132 0
1 142 137 0
1 -142 81 0
1 -142 135 0
1 -142 -133 0
1 -142 129 0
1 -142 -130 0
1 141 79 0
1 141 -136 0
1 -141 -131 0
1 -141 132 0
1 141 137 0
1 141 -142 0
1 -141 135 0
1 141 -129 0
1 141 -130 0
1 -141 139 0
1 -150 136 0
1 150 134 0
1 -150 -144 0
1 -150 190 0
1 -150 -137 0
1 150 -92 0
1 -150 135 0
1 -150 -133 0
1 150 -143 0
1 150 -191 0
1 150 -139 0
1 -150 151 0
1 151 136 0
1 -151 -134 0
1 -151 144 0
1 151 190 0
1 151 137 0
1 151 150 0
1 151 -135 0
1 -151 -133 0
1 -151 -143 0
1 -151 191 0
1 151 139 0
1 151 -94 0
1 133 -141 0
1 133 134 0
1 133 -158 0
1 133 -146 0
1 -133 192 0
1 -133 -150 0
1 133 -142 0
1 133 -159 0
1 133 147 0
1 -133 -151 0
1 134 -141 0
1 -134 -128 0
1 -134 193 0
1 134 -158 0
1 -134 146 0
1 -134 -150 0
1 -134 142 0
1 134 133 0
1 -134 -159 0
1 135 -141 0
1 135 136 0
1 -135 150 0
1 -135 142 0
1 -135 -126 0
1 135 -194 0
1 135 -151 0
1 -136 -141 0
1 -136 125 0
1 -136 -195 0
1 136 150 0
1 136 142 0
1 -136 -135 0
1 136 -151 0
1 146 -140 0
1 -146 -70 0
1 -146 134 0
1 -146 -144 0
1 146 -190 0
1 -146 -87 0
1 -146 -137 0
1 146 -138 0
1 146 -145 0
1 -146 -133 0
1 -146 -143 0
1 -146 191 0
1 146 147 0
1 146 139 0
1 147 140 0
1 147 139 0
1 147 70 0
1 -147 134 0
1 -147 144 0
1 -147 -190 0
1 147 146 0
1 147 138 0
1 147 -145 0
1 -147 -143 0
1 -147 -89 0
1 147 -191 0
1 -158 196 0
1 -158 -70 0
1 158 -134 0
1 158 -144 0
1 158 101 0
1 158 -190 0
1 158 152 0
1 158 -148 0
1 -158 145 0
1 158 -143 0
1 -158 133 0
1 -158 -159 0
1 158 191 0
1 -158 -149 0
1 159 196 0
1 159 -70 0
1 -159 -134 0
1 159 144 0
1 159 158 0
1 -159 -190 0
1 159 152 0
1 159 -148 0
1 159 -145 0
1 159 -133 0
1 159 -103 0
1 159 -143 0
1 159 -191 0
1 -159 -149 0
1 191 -164 0
1 -191 154 0
1 191 158 0
1 191 -190 0
1 191 146 0
1 -191 -150 0
1 -191 197 0
1 -191 -155 0
1 191 -159 0
1 -191 -147 0
1 -191 -198 0
1 191 151 0
1 190 199 0
1 190 164 0
1 190 154 0
1 190 132 0
1 190 200 0
1 190 146 0
1 -190 150 0
1 190 -197 0
1 190 -167 0
1 -190 -155 0
1 -190 159 0
1 190 -191 0
1 190 147 0
1 -190 151 0
1 143 199 0
1 143 144 0
1 -143 -158 0
1 -143 -129 0
1 143 150 0
1 143 -197 0
1 143 159 0
1 143 201 0
1 -143 147 0
1 -143 -151 0
1 -144 199 0
1 -144 131 0
1 144 -158 0
1 -144 -202 0
1 -144 -146 0
1 144 150 0
1 -144 143 0
1 -144 197 0
1 144 -159 0
1 144 -147 0
1 -144 151 0
1 154 196 0
1 -154 70 0
1 154 67 0
1 -154 84 0
1 154 -95 0
1 -154 190 0
1 154 152 0
1 -154 148 0
1 -154 -145 0
1 154 68 0
1 154 -155 0
1 -154 191 0
1 154 149 0
1 -155 196 0
1 155 -70 0
1 -155 67 0
1 -155 84 0
1 155 154 0
1 -155 -190 0
1 -155 152 0
1 -155 148 0
1 -155 -145 0
1 -155 68 0
1 -155 86 0
1 155 -98 0
1 155 191 0
1 -155 149 0
1 164 196 0
1 164 153 0
1 164 -84 0
1 -164 190 0
1 164 -148 0
1 -164 160 0
1 -164 156 0
1 -164 -86 0
1 -164 167 0
1 -164 -191 0
1 -164 -149 0
1 167 196 0
1 -167 -153 0
1 167 84 0
1 -167 -190 0
1 167 152 0
1 -167 -148 0
1 167 160 0
1 167 156 0
1 -167 -86 0
1 167 115 0
1 -167 191 0
1 -167 149 0
1 -196 -140 0
1 196 -203 0
1 -196 -173 0
1 -196 -204 0
1 196 -161 0
1 -196 164 0
1 196 -154 0
1 196 -158 0
1 196 -148 0
1 196 -205 0
1 -196 -175 0
1 196 -166 0
1 196 -167 0
1 -196 159 0
1 -148 -196 0
1 -148 -203 0
1 -148 -173 0
1 148 161 0
1 148 -164 0
1 -148 -154 0
1 -148 -158 0
1 148 -138 0
1 -148 205 0
1 -148 166 0
1 148 -167 0
1 148 -155 0
1 148 159 0
1 149 206 0
1 -149 203 0
1 -149 207 0
1 -149 199 0
1 -149 -164 0
1 149 -158 0
1 -149 152 0
1 149 205 0
1 -149 -208 0
1 149 -197 0
1 -149 167 0
1 149 155 0
1 -149 159 0
1 -149 139 0
1 152 -203 0
1 152 -207 0
1 152 -199 0
1 -152 164 0
1 152 -154 0
1 -152 -158 0
1 152 209 0
1 152 205 0
1 152 -208 0
1 -152 -197 0
1 -152 -167 0
1 -152 155 0
1 -152 -159 0
1 152 149 0
1 -161 -196 0
1 161 -106 0
1 -161 157 0
1 -161 -199 0
1 -161 84 0
1 -161 -153 0
1 -161 -80 0
1 -161 91 0
1 -161 148 0
1 161 -160 0
1 161 -166 0
1 -161 156 0
1 161 -82 0
1 -161 -93 0
1 166 -157 0
1 166 -161 0
1 166 153 0
1 -166 84 0
1 -166 -80 0
1 166 91 0
1 -166 148 0
1 166 -112 0
1 -166 160 0
1 166 197 0
1 -166 -156 0
1 -166 -82 0
1 166 93 0
1 -173 -196 0
1 -173 -121 0
1 -173 -207 0
1 173 157 0
1 173 153 0
1 173 -165 0
1 173 162 0
1 173 91 0
1 -173 -175 0
1 -173 160 0
1 173 -156 0
1 173 -168 0
1 -173 -93 0
1 -175 -196 0
1 175 -173 0
1 -175 -157 0
1 175 153 0
1 175 165 0
1 175 162 0
1 175 -91 0
1 -175 -148 0
1 -175 122 0
1 175 208 0
1 -175 -160 0
1 175 156 0
1 -175 -168 0
1 175 -163 0
1 -175 93 0
1 153 -169 0
1 -153 -173 0
1 153 -161 0
1 153 -67 0
1 -153 -210 0
1 153 -182 0
1 153 171 0
1 -153 175 0
1 -153 156 0
1 153 183 0
1 156 169 0
1 156 173 0
1 156 -161 0
1 -156 153 0
1 156 -164 0
1 156 -210 0
1 156 -182 0
1 -156 171 0
1 -156 175 0
1 -156 166 0
1 156 68 0
1 -156 -167 0
1 156 183 0
1 157 211 0
1 157 203 0
1 157 -173 0
1 -157 -70 0
1 -157 164 0
1 -157 210 0
1 -157 212 0
1 157 205 0
1 -157 175 0
1 -157 160 0
1 -157 166 0
1 157 167 0
1 160 211 0
1 160 203 0
1 -160 -173 0
1 -160 -161 0
1 -160 -164 0
1 160 -210 0
1 160 212 0
1 160 -205 0
1 -160 -175 0
1 160 145 0
1 160 -167 0
1 169 -117 0
1 169 203 0
1 -169 -153 0
1 -169 -165 0
1 -169 -162 0
1 169 -91 0
1 -169 -88 0
1 169 156 0
1 169 -163 0
1 169 93 0
1 -169 -90 0
1 169 -104 0
1 171 169 0
1 -171 153 0
1 -171 165 0
1 171 162 0
1 -171 91 0
1 -171 -118 0
1 171 -102 0
1 171 -205 0
1 171 -156 0
1 171 168 0
1 171 163 0
1 171 93 0
1 -171 90 0
1 171 104 0
1 -183 -211 0
1 183 -153 0
1 183 165 0
1 -183 -162 0
1 -183 174 0
1 183 -182 0
1 -183 -170 0
1 -183 -102 0
1 -183 -156 0
1 -183 168 0
1 -183 -163 0
1 183 176 0
1 -183 172 0
1 -183 181 0
1 183 104 0
1 182 153 0
1 182 -165 0
1 -182 162 0
1 182 183 0
1 -182 -174 0
1 182 179 0
1 -182 -170 0
1 182 212 0
1 -182 102 0
1 -182 -156 0
1 182 168 0
1 -182 163 0
1 182 176 0
1 182 -172 0
1 162 -169 0
1 162 -173 0
1 162 163 0
1 162 188 0
1 162 -178 0
1 -162 -182 0
1 -162 -171 0
1 162 175 0
1 -162 189 0
1 -162 180 0
1 -162 183 0
1 -163 -169 0
1 -163 -173 0
1 -163 -188 0
1 163 -162 0
1 163 -178 0
1 -163 182 0
1 163 171 0
1 163 175 0
1 163 82 0
1 163 180 0
1 163 183 0
1 165 -169 0
1 -165 -84 0
1 165 213 0
1 165 -210 0
1 165 182 0
1 165 -171 0
1 -165 -175 0
1 165 168 0
1 -165 214 0
1 -165 183 0
1 -168 169 0
1 -168 -173 0
1 168 165 0
1 -168 213 0
1 168 -210 0
1 -168 -182 0
1 -168 -171 0
1 168 -175 0
1 -168 -86 0
1 -168 -214 0
1 168 183 0
1 -180 100 0
1 -180 116 0
1 -180 162 0
1 180 -178 0
1 -180 -174 0
1 180 170 0
1 180 -102 0
1 -180 -97 0
1 -180 -114 0
1 -180 -176 0
1 180 -187 0
1 180 -172 0
1 -180 -104 0
1 178 100 0
1 178 -116 0
1 178 -162 0
1 -178 -185 0
1 178 -174 0
1 178 -210 0
1 178 170 0
1 178 -102 0
1 178 97 0
1 -178 114 0
1 178 172 0
1 178 176 0
1 -178 180 0
1 -178 -104 0
1 -189 188 0
1 -189 162 0
1 189 -174 0
1 -189 -170 0
1 189 114 0
1 -189 -163 0
1 189 186 0
1 189 -176 0
1 -189 214 0
1 189 172 0
1 188 -116 0
1 188 -184 0
1 188 162 0
1 -188 213 0
1 -188 174 0
1 -188 -170 0
1 -188 -114 0
1 188 -163 0
1 188 -189 0
1 188 172 0
1 -170 188 0
1 -170 88 0
1 -170 182 0
1 170 172 0
1 -170 189 0
1 -170 180 0
1 -170 -183 0
1 -172 -188 0
1 172 178 0
1 172 182 0
1 172 -170 0
1 172 189 0
1 -172 -90 0
1 -172 180 0
1 172 -183 0
1 -174 188 0
1 -174 -91 0
1 174 182 0
1 -174 176 0
1 174 -189 0
1 -174 180 0
1 -174 183 0
1 176 -188 0
1 -176 -178 0
1 -176 -174 0
1 -176 -182 0
1 -176 180 0
1 -176 -183 0
1 199 161 0
1 199 -195 0
1 -199 144 0
1 199 190 0
1 199 152 0
1 199 197 0
1 -199 194 0
1 -199 -191 0
1 -199 149 0
1 197 199 0
1 197 195 0
1 -197 193 0
1 197 144 0
1 197 190 0
1 -197 -152 0
1 197 -166 0
1 197 -194 0
1 -197 192 0
1 -197 -143 0
1 197 191 0
1 -197 -149 0
1 207 173 0
1 -207 195 0
1 207 -193 0
1 207 -202 0
1 207 152 0
1 207 -208 0
1 -207 -194 0
1 -207 192 0
1 -207 201 0
1 207 -198 0
1 -207 149 0
1 208 -207 0
1 208 -195 0
1 -208 193 0
1 -208 202 0
1 208 200 0
1 208 -152 0
1 -208 175 0
1 -208 -194 0
1 -208 201 0
1 208 -198 0
1 -208 149 0
1 -192 -203 0
1 192 -207 0
1 -192 199 0
1 192 -193 0
1 192 212 0
1 -192 -205 0
1 192 -208 0
1 192 -197 0
1 -192 -133 0
1 193 211 0
1 193 203 0
1 193 -207 0
1 193 199 0
1 193 134 0
1 -193 212 0
1 193 -205 0
1 193 208 0
1 193 -197 0
1 193 -192 0
1 -194 207 0
1 -194 199 0
1 -194 -195 0
1 194 208 0
1 -194 -197 0
1 -194 135 0
1 195 207 0
1 -195 199 0
1 -195 -194 0
1 -195 136 0
1 -195 208 0
1 -195 -197 0
1 -203 -169 0
1 203 -196 0
1 203 157 0
1 203 193 0
1 203 202 0
1 -203 200 0
1 203 152 0
1 -203 -205 0
1 -203 192 0
1 203 -201 0
1 -203 -198 0
1 203 -149 0
1 -205 196 0
1 205 -203 0
1 205 157 0
1 -205 193 0
1 -205 -202 0
1 -205 200 0
1 -205 152 0
1 205 171 0
1 205 -148 0
1 -205 -160 0
1 205 -192 0
1 -205 201 0
1 205 198 0
1 205 149 0
1 -211 157 0
1 211 193 0
1 211 202 0
1 -211 200 0
1 -211 -212 0
1 211 209 0
1 -211 215 0
1 -211 -160 0
1 211 -192 0
1 211 -201 0
1 211 -198 0
1 -211 183 0
1 -212 211 0
1 -212 -206 0
1 -212 -204 0
1 212 -193 0
1 -212 202 0
1 212 200 0
1 212 182 0
1 -212 -209 0
1 212 215 0
1 -212 -160 0
1 212 192 0
1 212 -201 0
1 212 198 0
1 198 203 0
1 -198 207 0
1 -198 213 0
1 -198 210 0
1 198 -200 0
1 -198 -212 0
1 -198 205 0
1 -198 208 0
1 -198 -214 0
1 -198 191 0
1 -200 211 0
1 -200 -203 0
1 200 -207 0
1 200 213 0
1 -200 -190 0
1 200 210 0
1 -200 212 0
1 -200 -205 0
1 -200 -208 0
1 200 -214 0
1 -200 198 0
1 201 211 0
1 -201 203 0
1 -201 -202 0
1 201 212 0
1 -201 205 0
1 201 -208 0
1 -201 143 0
1 -202 -211 0
1 -202 203 0
1 202 207 0
1 202 -144 0
1 202 -212 0
1 202 -205 0
1 202 208 0
1 -202 201 0
1 -210 -206 0
1 210 204 0
1 210 -157 0
1 -210 153 0
1 210 165 0
1 210 -178 0
1 -210 -200 0
1 210 209 0
1 -210 160 0
1 210 -156 0
1 210 198 0
1 -214 -206 0
1 214 -204 0
1 214 165 0
1 -214 -213 0
1 -214 -200 0
1 -214 -209 0
1 -214 215 0
1 -214 168 0
1 214 -189 0
1 214 198 0
1 -213 206 0
1 -213 -204 0
1 213 -165 0
1 -213 -188 0
1 213 200 0
1 -213 -215 0
1 213 168 0
1 -213 -214 0
1 204 -211 0
1 204 -196 0
1 -204 213 0
1 -204 -210 0
1 204 212 0
1 -204 -215 0
1 -204 214 0
1 -215 211 0
1 215 204 0
1 -215 -213 0
1 -215 210 0
1 215 -148 0
1 -215 214 0
1 206 -211 0
1 -206 212 0
1 -206 -209 0
1 206 -214 0
1 206 149 0
1 209 211 0
1 209 206 0
1 -209 -213 0
1 209 210 0
1 -209 -152 0
1 -209 -212 0
1 209 -214 0
